     Program PWSCF v.6.7MaX starts on 20Apr2025 at 14: 0: 0

     Waiting for input...
     Reading input from standard input

     Current dimensions of program PWSCF are:
     Max number of different atomic species (ntypx) = 10
     Max number of k-points (npk) =  40000
     Max angular momentum in pseudopotentials (lmaxx) =  3

     Subspace diagonalization in iterative solution of the eigenvalue problem:
     a serial algorithm will be used

     bravais-lattice index     =            2
     lattice parameter (alat)  =      10.2600  a.u.
     unit-cell volume          =     270.0114 (a.u.)^3
     number of atoms/cell      =            2
     number of atomic types    =            1
     number of electrons       =         8.00
     number of Kohn-Sham states=            4
     kinetic-energy cutoff     =      12.0000  Ry
     charge density cutoff     =      48.0000  Ry
     scf convergence threshold =      1.0E-08
     mixing beta               =       0.7000
     number of iterations used =            8  plain     mixing
     Exchange-correlation= SLA  PZ   NOGX NOGC
                           (   1   1   0   0   0   0   0)

     celldm(1)=  10.260000  celldm(2)=   0.000000  celldm(3)=   0.000000
     celldm(4)=   0.000000  celldm(5)=   0.000000  celldm(6)=   0.000000

     crystal axes: (cart. coord. in units of alat)
               a(1) = (  -0.500000   0.000000   0.500000 )
               a(2) = (   0.000000   0.500000   0.500000 )
               a(3) = (  -0.500000   0.500000   0.000000 )

     reciprocal axes: (cart. coord. in units 2 pi/alat)
               b(1) = ( -1.000000 -1.000000  1.000000 )
               b(2) = (  1.000000  1.000000  1.000000 )
               b(3) = ( -1.000000  1.000000 -1.000000 )

     PseudoPot. # 1 for Si read from file:
     ./Si.pz-vbc.UPF
     MD5 check sum: 9f25e6ff280f3123e9b3a84715b2e9c9
     Pseudo is Norm-conserving, Zval =  4.0
     Generated by new atomic code, or converted to UPF format
     Using radial grid of  431 points,  2 beta functions with:
                l(1) =   0
                l(2) =   1

     atomic species   valence    mass     pseudopotential
        Si             4.00    28.08550     Si( 1.00)

      6 Sym. Ops. (no inversion) found

                                    s                        frac. trans.

      isym =  1     identity

 cryst.   s( 1) = (     1          0          0      )
                  (     0          1          0      )
                  (     0          0          1      )

 cart.    s( 1) = (  1.0000000  0.0000000  0.0000000 )
                  (  0.0000000  1.0000000  0.0000000 )
                  (  0.0000000  0.0000000  1.0000000 )

      isym =  2     120 deg rotation - cart. axis [-1,-1,-1]

[...]

      isym =  3     120 deg rotation - cart. axis [1,1,1]

[...]

      isym =  4     inv. 180 deg rotation - cart. axis [1,-1,0]

[...]

      isym =  6     inv. 180 deg rotation - cart. axis [0,1,-1]

 cryst.   s( 6) = (     0          0          1      )
                  (     0          1          0      )
                  (     1          0          0      )

 cart.    s( 6) = (  1.0000000  0.0000000  0.0000000 )
                  (  0.0000000  0.0000000  1.0000000 )
                  (  0.0000000  1.0000000  0.0000000 )

     point group C_3v (3m)
     there are  3 classes
     the character table:

       E     2C3   3s_v
A_1    1.00  1.00  1.00
A_2    1.00  1.00 -1.00
E      2.00 -1.00  0.00

     the symmetry operations in each class and the name of the first element:

     E        1
          identity
     2C3      2    3
          120 deg rotation - cart. axis [-1,-1,-1]
     3s_v     4    5    6
          inv. 180 deg rotation - cart. axis [1,-1,0]

   Cartesian axes

     site n.     atom                  positions (alat units)
         1           Si  tau(   1) = (   0.0000000   0.0000000   0.0000000  )
         2           Si  tau(   2) = (   0.4726157   0.4726157   0.4726157  )

   Crystallographic axes

     site n.     atom                  positions (cryst. coord.)
         1           Si  tau(   1) = (  0.0000000  0.0000000  0.0000000  )
         2           Si  tau(   2) = ( -0.4726157  1.4178471 -0.4726157  )

     number of k points=    32
                       cart. coord. in units 2pi/alat
        k(    1) = (   0.0000000   0.0000000   0.0000000), wk =   0.0092593
        k(    2) = (  -0.1666667   0.1666667  -0.1666667), wk =   0.0555556
        k(    3) = (  -0.3333333   0.3333333  -0.3333333), wk =   0.0555556
        k(    4) = (   0.5000000  -0.5000000   0.5000000), wk =   0.0277778
        k(    5) = (   0.0000000   0.3333333   0.0000000), wk =   0.0555556
        k(    6) = (  -0.1666667   0.5000000  -0.1666667), wk =   0.0555556
        k(    7) = (   0.6666667  -0.3333333   0.6666667), wk =   0.0555556
        k(    8) = (   0.5000000  -0.1666667   0.5000000), wk =   0.0555556
        k(    9) = (   0.3333333   0.0000000   0.3333333), wk =   0.0555556
        k(   10) = (   0.0000000   0.6666667   0.0000000), wk =   0.0555556
        k(   11) = (   0.8333333  -0.1666667   0.8333333), wk =   0.0555556
        k(   12) = (   0.6666667  -0.0000000   0.6666667), wk =   0.0555556
        k(   13) = (   0.0000000  -1.0000000   0.0000000), wk =   0.0277778
        k(   14) = (   0.6666667  -0.3333333   1.0000000), wk =   0.1111111
        k(   15) = (   0.5000000  -0.1666667   0.8333333), wk =   0.1111111
        k(   16) = (  -0.3333333  -1.0000000   0.0000000), wk =   0.1111111
        k(   17) = (  -0.1666667  -0.1666667  -0.1666667), wk =   0.0185185
        k(   18) = (  -0.3333333  -0.3333333  -0.3333333), wk =   0.0185185
        k(   19) = (   0.5000000   0.5000000   0.5000000), wk =   0.0092593
        k(   20) = (   0.5000000   0.1666667  -0.1666667), wk =   0.1111111
        k(   21) = (  -0.5000000  -0.1666667  -0.1666667), wk =   0.0555556
        k(   22) = (  -0.3333333  -0.6666667   0.6666667), wk =   0.1111111
        k(   23) = (   0.3333333   0.6666667   0.6666667), wk =   0.0555556
        k(   24) = (  -0.1666667  -0.5000000   0.5000000), wk =   0.1111111
        k(   25) = (   0.1666667   0.5000000   0.5000000), wk =   0.0555556
        k(   26) = (   0.0000000  -0.3333333   0.3333333), wk =   0.0555556
        k(   27) = (  -0.1666667  -0.8333333   0.8333333), wk =   0.1111111
        k(   28) = (   0.1666667   0.8333333   0.8333333), wk =   0.0555556
        k(   29) = (   0.0000000  -0.6666667   0.6666667), wk =   0.0555556
        k(   30) = (  -0.3333333  -0.6666667   1.0000000), wk =   0.1111111
        k(   31) = (   0.1666667   0.5000000   0.8333333), wk =   0.0555556
        k(   32) = (  -0.8333333  -0.1666667   0.5000000), wk =   0.0555556

                       cryst. coord.
        k(    1) = (   0.0000000   0.0000000   0.0000000), wk =   0.0092593
        k(    2) = (   0.0000000   0.0000000   0.1666667), wk =   0.0555556
        k(    3) = (   0.0000000   0.0000000   0.3333333), wk =   0.0555556
        k(    4) = (   0.0000000   0.0000000  -0.5000000), wk =   0.0277778
        k(    5) = (   0.0000000   0.1666667   0.1666667), wk =   0.0555556
        k(    6) = (   0.0000000   0.1666667   0.3333333), wk =   0.0555556
        k(    7) = (   0.0000000   0.1666667  -0.5000000), wk =   0.0555556
        k(    8) = (   0.0000000   0.1666667  -0.3333333), wk =   0.0555556
        k(    9) = (   0.0000000   0.1666667  -0.1666667), wk =   0.0555556
        k(   10) = (   0.0000000   0.3333333   0.3333333), wk =   0.0555556
        k(   11) = (   0.0000000   0.3333333  -0.5000000), wk =   0.0555556
        k(   12) = (   0.0000000   0.3333333  -0.3333333), wk =   0.0555556
        k(   13) = (   0.0000000  -0.5000000  -0.5000000), wk =   0.0277778
        k(   14) = (   0.1666667   0.3333333  -0.5000000), wk =   0.1111111
        k(   15) = (   0.1666667   0.3333333  -0.3333333), wk =   0.1111111
        k(   16) = (   0.1666667  -0.5000000  -0.3333333), wk =   0.1111111
        k(   17) = (   0.0000000  -0.1666667   0.0000000), wk =   0.0185185
        k(   18) = (   0.0000000  -0.3333333   0.0000000), wk =   0.0185185
        k(   19) = (   0.0000000   0.5000000   0.0000000), wk =   0.0092593
        k(   20) = (  -0.3333333   0.0000000  -0.1666667), wk =   0.1111111
        k(   21) = (   0.1666667  -0.1666667   0.1666667), wk =   0.0555556
        k(   22) = (   0.5000000   0.0000000  -0.1666667), wk =   0.1111111
        k(   23) = (   0.1666667   0.6666667   0.1666667), wk =   0.0555556
        k(   24) = (   0.3333333   0.0000000  -0.1666667), wk =   0.1111111
        k(   25) = (   0.1666667   0.5000000   0.1666667), wk =   0.0555556
        k(   26) = (   0.1666667   0.0000000  -0.1666667), wk =   0.0555556
        k(   27) = (   0.5000000   0.0000000  -0.3333333), wk =   0.1111111
        k(   28) = (   0.3333333   0.8333333   0.3333333), wk =   0.0555556
        k(   29) = (   0.3333333   0.0000000  -0.3333333), wk =   0.0555556
        k(   30) = (   0.6666667   0.1666667  -0.1666667), wk =   0.1111111
        k(   31) = (   0.3333333   0.6666667   0.1666667), wk =   0.0555556
        k(   32) = (   0.6666667   0.1666667   0.3333333), wk =   0.0555556

     Initial potential from superposition of free atoms

     starting charge    7.99901, renormalised to    8.00000
     Starting wfcs are    8 randomized atomic wfcs

     Self-consistent Calculation

     iteration #  1     ecut=    12.00 Ry     beta= 0.70
     Davidson diagonalization with overlap
     ethr =  1.00E-02,  avg # of iterations =  2.0

     Threshold (ethr) on eigenvalues was too large:
     Diagonalizing with lowered threshold

     Davidson diagonalization with overlap
     ethr =  2.43E-04,  avg # of iterations =  2.2

     total energy              =     -15.67317157 Ry
     estimated scf accuracy    <       0.02115819 Ry

[...]

     total energy              =     -15.67621221 Ry
     estimated scf accuracy    <       0.00000015 Ry

     iteration #  6     ecut=    12.00 Ry     beta= 0.70
     Davidson diagonalization with overlap
     ethr =  1.86E-09,  avg # of iterations =  5.8

     End of self-consistent calculation

          k = 0.0000 0.0000 0.0000 (   169 PWs)   bands (ev):

    -5.2385   6.4709   6.4709   6.7202

     occupation numbers
     1.0000   1.0000   1.0000   1.0000

          k =-0.1667 0.1667-0.1667 (   172 PWs)   bands (ev):

[...]

          k = 0.1667 0.5000 0.8333 (   194 PWs)   bands (ev):

[...]

          k =-0.8333-0.1667 0.5000 (   194 PWs)   bands (ev):

    -1.0628  -0.8866   2.6598   3.4115

     occupation numbers
     1.0000   1.0000   1.0000   1.0000

     highest occupied level (ev):     7.4875

!    total energy              =     -15.67621283 Ry
     estimated scf accuracy    <          9.3E-09 Ry

     The total energy is the sum of the following terms:
     one-electron contribution =       6.12017315 Ry
     hartree contribution      =       0.44419092 Ry
     xc contribution           =      -4.59969763 Ry
     ewald contribution        =     -17.64087926 Ry

     convergence has been achieved in   6 iterations

     Writing output data file ./tmp/silicon.save/

     General routines

     Parallel routines

   This run was terminated on:  14: 0: 1  20Apr2025

   JOB DONE.
rohanberiwal@RichieRich:/mnt/c/Users/rohan/qe-silicon